Traveling Salesman Problem/TSP_generados/Aleatorio1620390969_11.tsp
NAME: Aleatorio1620390969_11.tsp
COMMENT: Randomly generated scenario
TYPE: TSP
DIMENSION: 11
EDGE_WEIGHT_TYPE: ATT
NODE_COORD_SECTION
1 17.21 18.1
2 46.11 20.71
3 27.4 3.29
4 3.97 11.79
5 20.27 25.1
6 33.15 48.49
7 36.26 31.36
8 31.7 19.38
9 25.28 48.44
10 6.84 41.69
11 39.36 24.94
