Traveling Salesman Problem/TSP_generados/Aleatorio1620390969_11.opt.tour
NAME: Aleatorio1620390969_11.opt.tour
COMMENT: Optimal solution for Aleatorio1620390969_11 (159.7130283910931)
TYPE: TOUR
DIMENSION: 11
TOUR_SECTION
1 5 10 9 6 7 11 2 8 3 4
-1
EOF
